NAME: random-61-24280
TYPE: TSP
COMMENT: size=61 seed=24280
DIMENSION: 124
EDGE_WEIGHT_TYPE: EUC_2D
NODE_COORD_SECTION
+0 960 849
-0 960 849
+1 455 708
-1 446 986
+2 469 502
-2 983 883
+3 535 927
-3 554 773
+4 695 778
-4 277 926
+5 848 242
-5 420 230
+6 832 169
-6 616 421
+7 780 272
-7 166 898
+8 676 416
-8 616 297
+9 200 565
-9 6 990
+10 54 328
-10 778 803
+11 554 292
-11 448 920
+12 533 348
-12 610 287
+13 109 242
-13 906 26
+14 356 515
-14 875 750
+15 452 377
-15 575 58
+16 395 369
-16 293 546
+17 723 110
-17 861 758
+18 431 651
-18 486 348
+19 278 328
-19 617 420
+20 147 499
-20 25 675
+21 353 205
-21 275 509
+22 178 62
-22 973 701
+23 666 46
-23 816 100
+24 245 503
-24 907 325
+25 165 593
-25 349 977
+26 756 527
-26 706 266
+27 848 479
-27 708 984
+28 745 331
-28 163 172
+29 47 965
-29 649 958
+30 577 411
-30 736 67
+31 756 642
-31 156 625
+32 56 637
-32 968 543
+33 410 239
-33 311 669
+34 549 806
-34 248 370
+35 631 221
-35 199 701
+36 2 372
-36 579 515
+37 513 613
-37 58 695
+38 780 370
-38 223 574
+39 748 436
-39 229 74
+40 441 831
-40 196 302
+41 504 196
-41 915 464
+42 892 106
-42 585 879
+43 301 754
-43 245 310
+44 832 360
-44 382 222
+45 358 53
-45 433 133
+46 973 578
-46 380 804
+47 209 653
-47 346 292
+48 481 250
-48 903 239
+49 707 866
-49 218 679
+50 304 897
-50 391 949
+51 564 672
-51 424 210
+52 703 516
-52 546 59
+53 452 254
-53 425 455
+54 913 922
-54 904 439
+55 536 378
-55 497 726
+56 73 383
-56 203 360
+57 965 295
-57 279 777
+58 391 307
-58 102 333
+59 209 837
-59 785 55
+60 306 28
-60 303 185
+61 338 215
-61 354 577
PRECEDENCE_SECTION
+0 -0
+1 -1
+2 -2
+3 -3
+4 -4
+5 -5
+6 -6
+7 -7
+8 -8
+9 -9
+10 -10
+11 -11
+12 -12
+13 -13
+14 -14
+15 -15
+16 -16
+17 -17
+18 -18
+19 -19
+20 -20
+21 -21
+22 -22
+23 -23
+24 -24
+25 -25
+26 -26
+27 -27
+28 -28
+29 -29
+30 -30
+31 -31
+32 -32
+33 -33
+34 -34
+35 -35
+36 -36
+37 -37
+38 -38
+39 -39
+40 -40
+41 -41
+42 -42
+43 -43
+44 -44
+45 -45
+46 -46
+47 -47
+48 -48
+49 -49
+50 -50
+51 -51
+52 -52
+53 -53
+54 -54
+55 -55
+56 -56
+57 -57
+58 -58
+59 -59
+60 -60
+61 -61
EOF
